
<<< setup

Version identifier: 22.1.1.0 | 2022-11-27 | 9160aff4d
Tried aggregator 1 time.
LP Presolve eliminated 1739 rows and 1709 columns.
Reduced LP has 8 rows, 14 columns, and 22 nonzeros.
Presolve time = 0.00 sec. (3.00 ticks)

Iteration log . . .
Iteration:     1   Dual infeasibility =            51.331860
Iteration:     9   Dual objective     =           283.330062
main returns 0

<<< main


<<< done

